c FILE /home/rafael/Documents/HappySet/MIHS/inputs/happygen/output/graph_d_regular_k5_p0.3_v50_20241127_082630.txt
c SOURCE This is a d-regular graph formed for the happy graph colouring problem.
c DESCRIPTION It was generated using the problem generator of Rhyd Lewis
c
c GRAPH STATS
c Seed                             = 836284215
c Number of Nodes                  = 50
c Number of colours k              = 5
c Number of pre-assignments        = 15
c Degree of all vertices           = 6
c Density                          = 0.122449
c 
c The degrees of nodes 1 to 50, respectively, are as follows 
c [6, 6, 6, 6, 6, 6, 6, 6, 6, 6, 6, 6, 6, 6, 6, 6, 6, 6, 6, 6, 6, 6, 6, 6, 6, 6, 
c  6, 6, 6, 6, 6, 6, 6, 6, 6, 6, 6, 6, 6, 6, 6, 6, 6, 6, 6, 6, 6, 6, 6, 6] 
c  
p edge 50 150 5
e 1 9
e 1 20
e 1 33
e 1 34
e 1 47
e 1 48
e 2 7
e 2 25
e 2 26
e 2 32
e 2 33
e 2 37
e 3 6
e 3 20
e 3 24
e 3 44
e 3 45
e 3 48
e 4 7
e 4 12
e 4 28
e 4 39
e 4 45
e 4 46
e 5 14
e 5 28
e 5 29
e 5 30
e 5 34
e 5 42
e 6 15
e 6 21
e 6 25
e 6 27
e 6 43
e 7 12
e 7 13
e 7 32
e 7 37
e 8 9
e 8 17
e 8 22
e 8 23
e 8 39
e 8 50
e 9 19
e 9 43
e 9 45
e 9 49
e 10 13
e 10 29
e 10 36
e 10 37
e 10 42
e 10 48
e 11 15
e 11 24
e 11 30
e 11 37
e 11 41
e 11 43
e 12 22
e 12 31
e 12 47
e 12 49
e 13 29
e 13 31
e 13 38
e 13 41
e 14 16
e 14 17
e 14 23
e 14 30
e 14 38
e 15 24
e 15 28
e 15 34
e 15 50
e 16 19
e 16 22
e 16 32
e 16 44
e 16 47
e 17 28
e 17 36
e 17 41
e 17 43
e 18 20
e 18 22
e 18 32
e 18 35
e 18 45
e 18 50
e 19 32
e 19 34
e 19 44
e 19 48
e 20 22
e 20 33
e 20 38
e 21 27
e 21 33
e 21 34
e 21 38
e 21 46
e 22 49
e 23 41
e 23 42
e 23 46
e 23 47
e 24 36
e 24 39
e 24 50
e 25 26
e 25 30
e 25 34
e 25 45
e 26 27
e 26 35
e 26 43
e 26 47
e 27 33
e 27 41
e 27 46
e 28 44
e 28 49
e 29 35
e 29 37
e 29 40
e 30 40
e 30 41
e 31 39
e 31 40
e 31 42
e 31 49
e 32 42
e 33 50
e 35 36
e 35 37
e 35 47
e 36 46
e 36 48
e 38 44
e 38 45
e 39 42
e 39 43
e 40 44
e 40 46
e 40 49
e 48 50
n 4 5
n 11 4
n 20 1
n 21 3
n 24 4
n 25 3
n 31 1
n 34 3
n 36 4
n 37 4
n 41 4
n 42 1
n 47 2
n 48 4
n 49 1
